(set-info :smt-lib-version 2.6)
(set-logic UFNIA)
(set-info :source |
Generated by: Geoff Sutcliffe
Generated on: 2026-03-11
Generator: TPTPWorld
Application: Benchmarking automated theorem provers
Time limit: 120.0

These benchmarks are translations from the TPTP Library (Thousands of
Problems for Theorem Provers), see http://www.cs.miami.edu/~tptp/

The TPTP is maintained by Geoff Sutcliffe, and he contributed this
selection of benchmarks to SMT-LIB.  They were exported from the
v9.2.1 realease of TPTP.
|)
(set-info :category "industrial")
(set-info :status "unknown")
; SZS status Success
(declare-sort $$unsorted 0)
(declare-sort tptp.uni 0)
(declare-sort tptp.ty 0)
(declare-fun tptp.sort1 (tptp.ty tptp.uni) Bool)
(declare-fun tptp.witness1 (tptp.ty) tptp.uni)
(assert (forall ((A tptp.ty)) (tptp.sort1 A (tptp.witness1 A))))
(declare-fun tptp.int () tptp.ty)
(declare-fun tptp.real () tptp.ty)
(declare-sort tptp.bool1 0)
(declare-fun tptp.bool () tptp.ty)
(declare-fun tptp.true1 () tptp.bool1)
(declare-fun tptp.false1 () tptp.bool1)
(declare-fun tptp.match_bool1 (tptp.ty tptp.bool1 tptp.uni tptp.uni) tptp.uni)
(assert (forall ((A tptp.ty) (X tptp.bool1) (X1 tptp.uni) (X2 tptp.uni)) (tptp.sort1 A (tptp.match_bool1 A X X1 X2))))
(assert (forall ((A tptp.ty) (Z tptp.uni) (Z1 tptp.uni)) (=> (tptp.sort1 A Z) (= (tptp.match_bool1 A tptp.true1 Z Z1) Z))))
(assert (forall ((A tptp.ty) (Z tptp.uni) (Z1 tptp.uni)) (=> (tptp.sort1 A Z1) (= (tptp.match_bool1 A tptp.false1 Z Z1) Z1))))
(assert (not (= tptp.true1 tptp.false1)))
(assert (forall ((U tptp.bool1)) (or (= U tptp.true1) (= U tptp.false1))))
(declare-sort tptp.tuple02 0)
(declare-fun tptp.tuple0 () tptp.ty)
(declare-fun tptp.tuple03 () tptp.tuple02)
(assert (forall ((U tptp.tuple02)) (= U tptp.tuple03)))
(declare-fun tptp.qtmark () tptp.ty)
(assert (forall ((X Int) (Y Int) (Z Int)) (=> (<= X Y) (=> (<= 0 Z) (<= (* X Z) (* Y Z))))))
(declare-fun tptp.list (tptp.ty) tptp.ty)
(declare-fun tptp.nil (tptp.ty) tptp.uni)
(assert (forall ((A tptp.ty)) (tptp.sort1 (tptp.list A) (tptp.nil A))))
(declare-fun tptp.cons (tptp.ty tptp.uni tptp.uni) tptp.uni)
(assert (forall ((A tptp.ty) (X tptp.uni) (X1 tptp.uni)) (tptp.sort1 (tptp.list A) (tptp.cons A X X1))))
(declare-fun tptp.match_list1 (tptp.ty tptp.ty tptp.uni tptp.uni tptp.uni) tptp.uni)
(assert (forall ((A tptp.ty) (A1 tptp.ty) (X tptp.uni) (X1 tptp.uni) (X2 tptp.uni)) (tptp.sort1 A1 (tptp.match_list1 A1 A X X1 X2))))
(assert (forall ((A tptp.ty) (A1 tptp.ty) (Z tptp.uni) (Z1 tptp.uni)) (=> (tptp.sort1 A1 Z) (= (tptp.match_list1 A1 A (tptp.nil A) Z Z1) Z))))
(assert (forall ((A tptp.ty) (A1 tptp.ty) (Z tptp.uni) (Z1 tptp.uni) (U tptp.uni) (U1 tptp.uni)) (=> (tptp.sort1 A1 Z1) (= (tptp.match_list1 A1 A (tptp.cons A U U1) Z Z1) Z1))))
(assert (forall ((A tptp.ty) (V tptp.uni) (V1 tptp.uni)) (not (= (tptp.nil A) (tptp.cons A V V1)))))
(declare-fun tptp.cons_proj_11 (tptp.ty tptp.uni) tptp.uni)
(assert (forall ((A tptp.ty) (X tptp.uni)) (tptp.sort1 A (tptp.cons_proj_11 A X))))
(assert (forall ((A tptp.ty) (U tptp.uni) (U1 tptp.uni)) (=> (tptp.sort1 A U) (= (tptp.cons_proj_11 A (tptp.cons A U U1)) U))))
(declare-fun tptp.cons_proj_21 (tptp.ty tptp.uni) tptp.uni)
(assert (forall ((A tptp.ty) (X tptp.uni)) (tptp.sort1 (tptp.list A) (tptp.cons_proj_21 A X))))
(assert (forall ((A tptp.ty) (U tptp.uni) (U1 tptp.uni)) (= (tptp.cons_proj_21 A (tptp.cons A U U1)) U1)))
(assert (forall ((A tptp.ty) (U tptp.uni)) (or (= U (tptp.nil A)) (= U (tptp.cons A (tptp.cons_proj_11 A U) (tptp.cons_proj_21 A U))))))
(declare-fun tptp.mem (tptp.ty tptp.uni tptp.uni) Bool)
(assert (forall ((A tptp.ty) (X tptp.uni)) (=> (tptp.sort1 A X) (and (not (tptp.mem A X (tptp.nil A))) (forall ((X1 tptp.uni) (X2 tptp.uni)) (=> (tptp.sort1 A X1) (= (tptp.mem A X (tptp.cons A X1 X2)) (or (= X X1) (tptp.mem A X X2)))))))))
(declare-fun tptp.length2 (tptp.ty tptp.uni) Int)
(assert (forall ((A tptp.ty)) (and (= (tptp.length2 A (tptp.nil A)) 0) (forall ((X tptp.uni) (X1 tptp.uni)) (= (tptp.length2 A (tptp.cons A X X1)) (+ 1 (tptp.length2 A X1)))))))
(assert (forall ((A tptp.ty) (L tptp.uni)) (<= 0 (tptp.length2 A L))))
(assert (forall ((A tptp.ty) (L tptp.uni)) (= (= (tptp.length2 A L) 0) (= L (tptp.nil A)))))
(declare-fun tptp.infix_plpl (tptp.ty tptp.uni tptp.uni) tptp.uni)
(assert (forall ((A tptp.ty) (X tptp.uni) (X1 tptp.uni)) (tptp.sort1 (tptp.list A) (tptp.infix_plpl A X X1))))
(assert (forall ((A tptp.ty) (L2 tptp.uni)) (and (= (tptp.infix_plpl A (tptp.nil A) L2) L2) (forall ((X tptp.uni) (X1 tptp.uni)) (= (tptp.infix_plpl A (tptp.cons A X X1) L2) (tptp.cons A X (tptp.infix_plpl A X1 L2)))))))
(assert (forall ((A tptp.ty) (L1 tptp.uni) (L2 tptp.uni) (L3 tptp.uni)) (= (tptp.infix_plpl A L1 (tptp.infix_plpl A L2 L3)) (tptp.infix_plpl A (tptp.infix_plpl A L1 L2) L3))))
(assert (forall ((A tptp.ty) (L tptp.uni)) (= (tptp.infix_plpl A L (tptp.nil A)) L)))
(assert (forall ((A tptp.ty) (L1 tptp.uni) (L2 tptp.uni)) (= (tptp.length2 A (tptp.infix_plpl A L1 L2)) (+ (tptp.length2 A L1) (tptp.length2 A L2)))))
(assert (forall ((A tptp.ty) (X tptp.uni) (L1 tptp.uni) (L2 tptp.uni)) (= (tptp.mem A X (tptp.infix_plpl A L1 L2)) (or (tptp.mem A X L1) (tptp.mem A X L2)))))
(assert (forall ((A tptp.ty) (X tptp.uni) (L tptp.uni)) (=> (tptp.mem A X L) (exists ((L1 tptp.uni) (L2 tptp.uni)) (let ((_let_1 (tptp.list A))) (and (tptp.sort1 _let_1 L1) (tptp.sort1 _let_1 L2) (= L (tptp.infix_plpl A L1 (tptp.cons A X L2)))))))))
(declare-fun tptp.num_occ1 (tptp.ty tptp.uni tptp.uni) Int)
(assert (forall ((A tptp.ty) (X tptp.uni)) (=> (tptp.sort1 A X) (and (= (tptp.num_occ1 A X (tptp.nil A)) 0) (forall ((X1 tptp.uni) (X2 tptp.uni)) (let ((_let_1 (tptp.num_occ1 A X X2))) (let ((_let_2 (tptp.num_occ1 A X (tptp.cons A X1 X2)))) (let ((_let_3 (= X X1))) (=> (tptp.sort1 A X1) (and (=> _let_3 (= _let_2 (+ 1 _let_1))) (=> (not _let_3) (= _let_2 (+ 0 _let_1)))))))))))))
(assert (forall ((A tptp.ty) (X tptp.uni) (L tptp.uni)) (= (tptp.mem A X L) (< 0 (tptp.num_occ1 A X L)))))
(assert (forall ((A tptp.ty) (X tptp.uni) (L1 tptp.uni) (L2 tptp.uni)) (= (tptp.num_occ1 A X (tptp.infix_plpl A L1 L2)) (+ (tptp.num_occ1 A X L1) (tptp.num_occ1 A X L2)))))
(declare-fun tptp.reverse (tptp.ty tptp.uni) tptp.uni)
(assert (forall ((A tptp.ty) (X tptp.uni)) (tptp.sort1 (tptp.list A) (tptp.reverse A X))))
(assert (forall ((A tptp.ty)) (let ((_let_1 (tptp.nil A))) (and (= (tptp.reverse A _let_1) _let_1) (forall ((X tptp.uni) (X1 tptp.uni)) (= (tptp.reverse A (tptp.cons A X X1)) (tptp.infix_plpl A (tptp.reverse A X1) (tptp.cons A X (tptp.nil A)))))))))
(assert (forall ((A tptp.ty) (L1 tptp.uni) (L2 tptp.uni) (X tptp.uni)) (= (tptp.infix_plpl A (tptp.reverse A (tptp.cons A X L1)) L2) (tptp.infix_plpl A (tptp.reverse A L1) (tptp.cons A X L2)))))
(assert (forall ((A tptp.ty) (L tptp.uni) (X tptp.uni)) (= (tptp.reverse A (tptp.cons A X L)) (tptp.infix_plpl A (tptp.reverse A L) (tptp.cons A X (tptp.nil A))))))
(assert (forall ((A tptp.ty) (L tptp.uni)) (= (tptp.reverse A (tptp.reverse A L)) L)))
(assert (forall ((A tptp.ty) (L tptp.uni) (X tptp.uni)) (= (tptp.mem A X L) (tptp.mem A X (tptp.reverse A L)))))
(assert (forall ((A tptp.ty) (L tptp.uni)) (= (tptp.length2 A (tptp.reverse A L)) (tptp.length2 A L))))
(assert (forall ((A tptp.ty) (X tptp.uni) (L tptp.uni)) (= (tptp.num_occ1 A X L) (tptp.num_occ1 A X (tptp.reverse A L)))))
(declare-fun tptp.permut (tptp.ty tptp.uni tptp.uni) Bool)
(assert (forall ((A tptp.ty) (L1 tptp.uni) (L2 tptp.uni)) (let ((_let_1 (tptp.permut A L1 L2))) (and (=> _let_1 (forall ((X tptp.uni)) (= (tptp.num_occ1 A X L1) (tptp.num_occ1 A X L2)))) (=> (forall ((X tptp.uni)) (=> (tptp.sort1 A X) (= (tptp.num_occ1 A X L1) (tptp.num_occ1 A X L2)))) _let_1)))))
(assert (forall ((A tptp.ty) (L tptp.uni)) (tptp.permut A L L)))
(assert (forall ((A tptp.ty) (L1 tptp.uni) (L2 tptp.uni)) (=> (tptp.permut A L1 L2) (tptp.permut A L2 L1))))
(assert (forall ((A tptp.ty) (L1 tptp.uni) (L2 tptp.uni) (L3 tptp.uni)) (=> (tptp.permut A L1 L2) (=> (tptp.permut A L2 L3) (tptp.permut A L1 L3)))))
(assert (forall ((A tptp.ty) (X tptp.uni) (L1 tptp.uni) (L2 tptp.uni)) (=> (tptp.permut A L1 L2) (tptp.permut A (tptp.cons A X L1) (tptp.cons A X L2)))))
(assert (forall ((A tptp.ty) (X tptp.uni) (Y tptp.uni) (L tptp.uni)) (tptp.permut A (tptp.cons A X (tptp.cons A Y L)) (tptp.cons A Y (tptp.cons A X L)))))
(assert (forall ((A tptp.ty) (X tptp.uni) (L1 tptp.uni) (L2 tptp.uni)) (tptp.permut A (tptp.infix_plpl A (tptp.cons A X L1) L2) (tptp.infix_plpl A L1 (tptp.cons A X L2)))))
(assert (forall ((A tptp.ty) (L1 tptp.uni) (L2 tptp.uni) (L3 tptp.uni)) (tptp.permut A (tptp.infix_plpl A (tptp.infix_plpl A L1 L2) L3) (tptp.infix_plpl A L1 (tptp.infix_plpl A L2 L3)))))
(assert (forall ((A tptp.ty) (L1 tptp.uni) (L2 tptp.uni) (K1 tptp.uni) (K2 tptp.uni)) (=> (tptp.permut A L1 K1) (=> (tptp.permut A L2 K2) (tptp.permut A (tptp.infix_plpl A L1 L2) (tptp.infix_plpl A K1 K2))))))
(assert (forall ((A tptp.ty) (L1 tptp.uni) (L2 tptp.uni)) (tptp.permut A (tptp.infix_plpl A L1 L2) (tptp.infix_plpl A L2 L1))))
(assert (forall ((A tptp.ty) (X tptp.uni) (L1 tptp.uni) (L2 tptp.uni)) (=> (tptp.permut A L1 L2) (=> (tptp.mem A X L1) (tptp.mem A X L2)))))
(assert (forall ((A tptp.ty) (L1 tptp.uni) (L2 tptp.uni)) (=> (tptp.permut A L1 L2) (= (tptp.length2 A L1) (tptp.length2 A L2)))))
(declare-fun tptp.t (tptp.ty) tptp.ty)
(declare-fun tptp.mk_t (tptp.ty tptp.uni) tptp.uni)
(assert (forall ((A tptp.ty) (X tptp.uni)) (tptp.sort1 (tptp.t A) (tptp.mk_t A X))))
(declare-fun tptp.elts (tptp.ty tptp.uni) tptp.uni)
(assert (forall ((A tptp.ty) (X tptp.uni)) (tptp.sort1 (tptp.list A) (tptp.elts A X))))
(assert (forall ((A tptp.ty) (U tptp.uni)) (= (tptp.elts A (tptp.mk_t A U)) U)))
(assert (forall ((A tptp.ty) (U tptp.uni)) (= U (tptp.mk_t A (tptp.elts A U)))))
(declare-fun tptp.length3 (tptp.ty tptp.uni) Int)
(assert (forall ((A tptp.ty) (Q tptp.uni)) (= (tptp.length3 A Q) (tptp.length2 A (tptp.elts A Q)))))
(declare-sort tptp.elt1 0)
(declare-fun tptp.elt () tptp.ty)
(declare-fun tptp.le1 (tptp.elt1 tptp.elt1) Bool)
(assert (forall ((X tptp.elt1)) (tptp.le1 X X)))
(assert (forall ((X tptp.elt1) (Y tptp.elt1) (Z tptp.elt1)) (=> (tptp.le1 X Y) (=> (tptp.le1 Y Z) (tptp.le1 X Z)))))
(assert (forall ((X tptp.elt1) (Y tptp.elt1)) (or (tptp.le1 X Y) (tptp.le1 Y X))))
(declare-sort tptp.list_elt 0)
(declare-fun tptp.sorted1 (tptp.list_elt) Bool)
(declare-fun tptp.t2tb (tptp.list_elt) tptp.uni)
(assert (forall ((X tptp.list_elt)) (tptp.sort1 (tptp.list tptp.elt) (tptp.t2tb X))))
(declare-fun tptp.tb2t (tptp.uni) tptp.list_elt)
(assert (forall ((I tptp.list_elt)) (= (tptp.tb2t (tptp.t2tb I)) I)))
(assert (forall ((J tptp.uni)) (= (tptp.t2tb (tptp.tb2t J)) J)))
(assert (tptp.sorted1 (tptp.tb2t (tptp.nil tptp.elt))))
(declare-fun tptp.t2tb1 (tptp.elt1) tptp.uni)
(assert (forall ((X tptp.elt1)) (tptp.sort1 tptp.elt (tptp.t2tb1 X))))
(declare-fun tptp.tb2t1 (tptp.uni) tptp.elt1)
(assert (forall ((I tptp.elt1)) (= (tptp.tb2t1 (tptp.t2tb1 I)) I)))
(assert (forall ((J tptp.uni)) (=> (tptp.sort1 tptp.elt J) (= (tptp.t2tb1 (tptp.tb2t1 J)) J))))
(assert (forall ((X tptp.elt1)) (tptp.sorted1 (tptp.tb2t (tptp.cons tptp.elt (tptp.t2tb1 X) (tptp.nil tptp.elt))))))
(assert (forall ((X tptp.elt1) (Y tptp.elt1) (L tptp.list_elt)) (let ((_let_1 (tptp.cons tptp.elt (tptp.t2tb1 Y) (tptp.t2tb L)))) (=> (tptp.le1 X Y) (=> (tptp.sorted1 (tptp.tb2t _let_1)) (tptp.sorted1 (tptp.tb2t (tptp.cons tptp.elt (tptp.t2tb1 X) _let_1))))))))
(assert (forall ((Z tptp.list_elt)) (=> (tptp.sorted1 Z) (or (= Z (tptp.tb2t (tptp.nil tptp.elt))) (exists ((X tptp.elt1)) (= Z (tptp.tb2t (tptp.cons tptp.elt (tptp.t2tb1 X) (tptp.nil tptp.elt))))) (exists ((X tptp.elt1) (Y tptp.elt1) (L tptp.list_elt)) (let ((_let_1 (tptp.cons tptp.elt (tptp.t2tb1 Y) (tptp.t2tb L)))) (and (tptp.le1 X Y) (tptp.sorted1 (tptp.tb2t _let_1)) (= Z (tptp.tb2t (tptp.cons tptp.elt (tptp.t2tb1 X) _let_1))))))))))
(assert (forall ((X tptp.elt1) (L tptp.list_elt)) (= (and (forall ((Y tptp.elt1)) (=> (tptp.mem tptp.elt (tptp.t2tb1 Y) (tptp.t2tb L)) (tptp.le1 X Y))) (tptp.sorted1 L)) (tptp.sorted1 (tptp.tb2t (tptp.cons tptp.elt (tptp.t2tb1 X) (tptp.t2tb L)))))))
(assert (forall ((L1 tptp.list_elt) (L2 tptp.list_elt)) (= (and (tptp.sorted1 L1) (tptp.sorted1 L2) (forall ((X tptp.elt1) (Y tptp.elt1)) (=> (tptp.mem tptp.elt (tptp.t2tb1 X) (tptp.t2tb L1)) (=> (tptp.mem tptp.elt (tptp.t2tb1 Y) (tptp.t2tb L2)) (tptp.le1 X Y))))) (tptp.sorted1 (tptp.tb2t (tptp.infix_plpl tptp.elt (tptp.t2tb L1) (tptp.t2tb L2)))))))
(assert (not (forall ((Q tptp.list_elt)) (=> (< 1 (tptp.length2 tptp.elt (tptp.t2tb Q))) (forall ((Q1 tptp.list_elt)) (=> (= Q1 (tptp.tb2t (tptp.nil tptp.elt))) (forall ((Q2 tptp.list_elt)) (=> (= Q2 (tptp.tb2t (tptp.nil tptp.elt))) (forall ((Q21 tptp.list_elt) (Q11 tptp.list_elt) (Q3 tptp.list_elt)) (let ((_let_1 (tptp.t2tb Q21))) (let ((_let_2 (tptp.length2 tptp.elt _let_1))) (let ((_let_3 (tptp.t2tb Q11))) (let ((_let_4 (tptp.length2 tptp.elt _let_3))) (let ((_let_5 (tptp.t2tb Q3))) (=> (and (tptp.permut tptp.elt (tptp.infix_plpl tptp.elt (tptp.infix_plpl tptp.elt _let_3 _let_1) _let_5) (tptp.t2tb Q)) (or (= _let_4 _let_2) (and (= (tptp.length2 tptp.elt _let_5) 0) (= _let_4 (+ _let_2 1))))) (forall ((O tptp.bool1)) (let ((_let_1 (= Q3 (tptp.tb2t (tptp.nil tptp.elt))))) (let ((_let_2 (= O tptp.true1))) (=> (= _let_2 _let_1) (=> (not (not _let_2)) (=> _let_1 (=> (tptp.permut tptp.elt (tptp.infix_plpl tptp.elt (tptp.t2tb Q11) (tptp.t2tb Q21)) (tptp.t2tb Q)) (forall ((Q12 tptp.list_elt)) (=> (and (tptp.sorted1 Q12) (tptp.permut tptp.elt (tptp.t2tb Q12) (tptp.t2tb Q11))) (forall ((Q22 tptp.list_elt)) (let ((_let_1 (tptp.sorted1 Q22))) (=> (and _let_1 (tptp.permut tptp.elt (tptp.t2tb Q22) (tptp.t2tb Q21))) (=> (and (= Q3 (tptp.tb2t (tptp.nil tptp.elt))) (tptp.sorted1 Q12) _let_1) (forall ((Q4 tptp.list_elt)) (let ((_let_1 (tptp.t2tb Q4))) (let ((_let_2 (tptp.sorted1 Q4))) (=> (and _let_2 (tptp.permut tptp.elt _let_1 (tptp.infix_plpl tptp.elt (tptp.t2tb Q12) (tptp.t2tb Q22)))) (and _let_2 (tptp.permut tptp.elt _let_1 (tptp.t2tb Q)))))))))))))))))))))))))))))))))))
(check-sat)
(exit)
